(declare-const X String)
; [A-Za-z_.0-9-]+@{1}[a-z]+([.]{1}[a-z]{2,4})+
(assert (not (str.in.re X (re.++ (re.+ (re.union (re.range "A" "Z") (re.range "a" "z") (str.to.re "_") (str.to.re ".") (re.range "0" "9") (str.to.re "-"))) ((_ re.loop 1 1) (str.to.re "@")) (re.+ (re.range "a" "z")) (re.+ (re.++ ((_ re.loop 1 1) (str.to.re ".")) ((_ re.loop 2 4) (re.range "a" "z")))) (str.to.re "\x0a")))))
; WinSession\w+asdbiz\x2Ebiz\dpjpoptwql\x2frlnj\x2Fpagead\x2Fads\?
(assert (not (str.in.re X (re.++ (str.to.re "WinSession") (re.+ (re.union (re.range "0" "9") (re.range "A" "Z") (re.range "a" "z") (str.to.re "_"))) (str.to.re "asdbiz.biz") (re.range "0" "9") (str.to.re "pjpoptwql/rlnj/pagead/ads?\x0a")))))
; From\x3A\w+SoftActivity\d+
(assert (not (str.in.re X (re.++ (str.to.re "From:") (re.+ (re.union (re.range "0" "9") (re.range "A" "Z") (re.range "a" "z") (str.to.re "_"))) (str.to.re "SoftActivity\x13") (re.+ (re.range "0" "9")) (str.to.re "\x0a")))))
; ^[a-zA-Z0-9][a-zA-Z0-9_]{2,29}$
(assert (str.in.re X (re.++ (re.union (re.range "a" "z") (re.range "A" "Z") (re.range "0" "9")) ((_ re.loop 2 29) (re.union (re.range "a" "z") (re.range "A" "Z") (re.range "0" "9") (str.to.re "_"))) (str.to.re "\x0a"))))
; ^([0-9]{1,2},([0-9]{2},)*[0-9]{3}|[0-9]+)$
(assert (not (str.in.re X (re.++ (re.union (re.++ ((_ re.loop 1 2) (re.range "0" "9")) (str.to.re ",") (re.* (re.++ ((_ re.loop 2 2) (re.range "0" "9")) (str.to.re ","))) ((_ re.loop 3 3) (re.range "0" "9"))) (re.+ (re.range "0" "9"))) (str.to.re "\x0a")))))
(check-sat)
